NAME : test
COMMENT : test for paper
TYPE : TSP
DIMENSION : 16
EDGE_WEIGHT_TYPE : EUC_2D
NODE_COORD_SECTION
1 200 910
2 480 960
3 390 660
4 660 1370
5 650 340
6 750 1580
7 890 1390
8 840 1160
9 890 920
10 1130 1380
11 1120 1230
12 1280 1020
13 1140 550
14 1510 690
15 1300 70
16 1030 1660
EOF